CPXPARAM_Read_DataCheck                          1
Found incumbent of value 0.000000 after 0.00 sec. (0.38 ticks)
Tried aggregator 1 time.
MIP Presolve modified 1 coefficients.
Reduced MIP has 1046 rows, 15015 columns, and 75060 nonzeros.
Reduced MIP has 15015 binaries, 0 generals, 0 SOSs, and 0 indicators.
Presolve time = 0.03 sec. (29.15 ticks)
Tried aggregator 1 time.
Reduced MIP has 1046 rows, 15015 columns, and 75060 nonzeros.
Reduced MIP has 15015 binaries, 0 generals, 0 SOSs, and 0 indicators.
Presolve time = 0.05 sec. (34.53 ticks)
Probing time = 0.00 sec. (4.35 ticks)
Clique table members: 29574.
MIP emphasis: balance optimality and feasibility.
MIP search method: dynamic search.
Parallel mode: deterministic, using up to 4 threads.
Root relaxation solution time = 0.13 sec. (171.57 ticks)

        Nodes                                         Cuts/
   Node  Left     Objective  IInf  Best Integer    Best Bound    ItCnt     Gap

*     0+    0                            0.0000    92368.0000              --- 
      0     0    20252.9433    15        0.0000    20252.9433     2424     --- 
*     0+    0                        16839.0000    20252.9433            20.27%
      0     0    19056.4196   613    16839.0000     Cuts: 361     3539   13.17%
*     0+    0                        17342.0000    19056.4196             9.89%
      0     0    18633.3081  1162    17342.0000     Cuts: 361     4693    7.45%
*     0+    0                        17420.0000    18633.3081             6.97%
      0     0    18328.4230  1234    17420.0000     Cuts: 361     6330    5.21%
*     0+    0                        17512.0000    18328.4230             4.66%
      0     0    18062.9372  1906    17512.0000     Cuts: 361     7981    3.15%
*     0+    0                        17529.0000    18062.9372             3.05%
      0     0    17913.1769  2241    17529.0000     Cuts: 361     9522    2.19%
      0     0    17809.6261  2558    17529.0000     Cuts: 361    10940    1.60%
      0     0    17726.1033  2770    17529.0000     Cuts: 361    12393    1.12%
      0     0    17672.8217  2876    17529.0000     Cuts: 361    13493    0.82%
      0     0        cutoff          17529.0000    17529.0000    14688    0.00%
Elapsed time = 26.64 sec. (12736.07 ticks, tree = 0.01 MB, solutions = 6)

Clique cuts applied:  2560
Cover cuts applied:  30
Mixed integer rounding cuts applied:  109
Zero-half cuts applied:  3

Root node processing (before b&c):
  Real time             =   26.66 sec. (12737.47 ticks)
Parallel b&c, 4 threads:
  Real time             =    0.00 sec. (0.00 ticks)
  Sync time (average)   =    0.00 sec.
  Wait time (average)   =    0.00 sec.
                          ------------
Total (root+branch&cut) =   26.66 sec. (12737.47 ticks)
